NAME : XML100_3336_16
DIMENSION : 101
NB_CLUSTERS : 3
CLUSTERING_ALG : KMedoids
CLUSTERING_PARAMS : k(2)
CLUSTERS
1 0
2 2 3 6 10 14 16 18 21 22 27 28 30 31 32 33 34 35 36 38 39 41 45 46 47 48 51 52 53 54 55 57 58 63 65 66 70 71 73 74 75 76 77 83 87 88 90 92 98 99
3 1 4 5 7 8 9 11 12 13 15 17 19 20 23 24 25 26 29 37 40 42 43 44 49 50 56 59 60 61 62 64 67 68 69 72 78 79 80 81 82 84 85 86 89 91 93 94 95 96 97 100
EOF